53983
49, 48, 17, 23, 21, 29, 22, 10, 16, 39, 46, 36, 15, 52, 42, 33, 1, 27, 31, 25, 11, 45, 2, 14, 9, 12, 18, 4, 30, 47, 54, 34, 53, 26, 55, 28, 6, 3, 43, 40, 7, 20, 50, 24, 32, 41, 13, 51, 37, 5, 35, 38, 8, 44, 19
